(declare-const X String)
; hostie\s+freeIPaddrs\s+TPSystemHost\x3a\x7D\x7BUser\x3AAlert\x2Fcgi-bin\x2F
(assert (not (str.in_re X (re.++ (str.to_re "hostie") (re.+ (re.union (str.to_re " ") (str.to_re "\u{9}") (str.to_re "\u{a}") (str.to_re "\u{c}") (str.to_re "\u{d}"))) (str.to_re "freeIPaddrs") (re.+ (re.union (str.to_re " ") (str.to_re "\u{9}") (str.to_re "\u{a}") (str.to_re "\u{c}") (str.to_re "\u{d}"))) (str.to_re "TPSystemHost:}{User:Alert/cgi-bin/\u{a}")))))
; /\r\nLocation\x3a\x20https\x3a\x2f{2}dl\.dropboxusercontent\.com\/[a-zA-Z\d\x2f]{5,32}\/avcheck\.exe\r\n\r\n$/H
(assert (str.in_re X (re.++ (str.to_re "/\u{d}\u{a}Location: https:") ((_ re.loop 2 2) (str.to_re "/")) (str.to_re "dl.dropboxusercontent.com/") ((_ re.loop 5 32) (re.union (re.range "a" "z") (re.range "A" "Z") (re.range "0" "9") (str.to_re "/"))) (str.to_re "/avcheck.exe\u{d}\u{a}\u{d}\u{a}/H\u{a}"))))
; /^exec\x7c\d+\x7c\d+\x7C[a-z0-9]+\x2E[a-z]{2,3}\x7C[a-z0-9]+\x7C/
(assert (str.in_re X (re.++ (str.to_re "/exec|") (re.+ (re.range "0" "9")) (str.to_re "|") (re.+ (re.range "0" "9")) (str.to_re "|") (re.+ (re.union (re.range "a" "z") (re.range "0" "9"))) (str.to_re ".") ((_ re.loop 2 3) (re.range "a" "z")) (str.to_re "|") (re.+ (re.union (re.range "a" "z") (re.range "0" "9"))) (str.to_re "|/\u{a}"))))
(check-sat)

(exit)
